param travelTime := 
[*,*,1]: 
	1		2		3	 := 
0	0	9	3	
1	0	9	3	
2	0	9	3	
3	0	9	3	
4	0	9	3	
5	0	9	3	
6	0	9	3	
7	0	9	3	
8	0	9	3	
9	0	9	3	
10	0	9	3	
11	0	9	3	
12	0	9	3	
13	0	9	3	
14	0	9	3	
15	0	9	3	
16	0	9	3	
17	0	9	3	
18	0	9	3	
19	0	9	3	
20	0	9	3	
21	0	9	3	
22	0	9	3	
23	0	9	3	
24	0	9	3	
25	0	9	3	
26	0	9	3	
27	0	9	3	
28	0	9	3	
29	0	9	3	
30	0	9	3	
31	0	9	3	
32	0	9	3	
33	0	9	3	
34	0	9	3	
35	0	9	3	
36	0	9	3	
37	0	9	3	
38	0	9	3	
39	0	9	3	
40	0	9	3	
41	0	9	3	
42	0	9	3	
43	0	9	3	
44	0	9	3	
45	0	9	3	
46	0	9	3	
47	0	9	3	
48	0	9	3	
49	0	9	3	
50	0	9	3	
51	0	9	3	
52	0	9	3	
53	0	9	3	
54	0	9	3	
55	0	9	3	
56	0	9	3	
57	0	9	3	
58	0	9	3	
59	0	9	3	
60	0	9	3	
61	0	9	3	
62	0	9	3	
63	0	9	3	
64	0	9	3	
65	0	9	3	
66	0	9	3	
67	0	9	3	
68	0	9	3	
69	0	9	3	
70	0	9	3	
71	0	9	3	
72	0	9	3	
73	0	9	3	
74	0	9	3	
75	0	9	3	
76	0	9	3	
77	0	9	3	
78	0	9	3	
79	0	9	3	
80	0	9	3	
81	0	9	3	
82	0	9	3	
83	0	9	3	
84	0	9	3	
85	0	9	3	
86	0	9	3	
87	0	9	3	
88	0	9	3	
89	0	9	3	
90	0	9	3	
91	0	9	3	
92	0	9	3	
93	0	9	3	
94	0	9	3	
95	0	9	3	
96	0	9	3	
97	0	9	3	
98	0	9	3	
99	0	9	3	
100	0	9	3	
101	0	9	3	
102	0	9	3	
103	0	9	3	
104	0	9	3	
105	0	9	3	
106	0	9	3	
107	0	9	3	
108	0	9	3	
109	0	9	3	
110	0	9	3	
111	0	9	3	
112	0	9	3	
113	0	9	3	
114	0	9	3	
115	0	9	3	
116	0	9	3	
117	0	9	3	
118	0	9	3	
119	0	9	3	
120	0	9	3	
121	0	9	3	
122	0	9	3	
123	0	9	3	
124	0	9	3	
125	0	9	3	
126	0	9	3	
127	0	9	3	
128	0	9	3	
129	0	9	3	
130	0	9	3	
131	0	9	3	
132	0	9	3	
133	0	9	3	
134	0	9	3	
135	0	9	3	
136	0	9	3	
137	0	9	3	
138	0	9	3	
139	0	9	3	
140	0	9	3	
141	0	9	3	
142	0	9	3	
143	0	9	3	
144	0	9	3	
145	0	9	3	
146	0	9	3	
147	0	9	3	
148	0	9	3	
149	0	9	3	
150	0	9	3	
151	0	9	3	
152	0	9	3	
153	0	9	3	
154	0	9	3	
155	0	9	3	
156	0	9	3	
157	0	9	3	
158	0	9	3	
159	0	9	3	
160	0	9	3	
161	0	9	3	
162	0	9	3	
163	0	9	3	
164	0	9	3	
165	0	9	3	
166	0	9	3	
167	0	9	3	
168	0	9	3	
169	0	9	3	
170	0	9	3	
171	0	9	3	
172	0	9	3	
173	0	9	3	
174	0	9	3	
175	0	9	3	
176	0	9	3	
177	0	9	3	
178	0	9	3	
179	0	9	3	
180	0	9	3	
181	0	9	3	
182	0	9	3	
183	0	9	3	
184	0	9	3	
185	0	9	3	
186	0	9	3	
187	0	9	3	
188	0	9	3	
189	0	9	3	
190	0	9	3	
191	0	9	3	
192	0	9	3	
193	0	9	3	
194	0	9	3	
195	0	9	3	
196	0	9	3	
197	0	9	3	
198	0	9	3	
199	0	9	3	
200	0	9	3	
201	0	9	3	
202	0	9	3	
203	0	9	3	
204	0	9	3	
205	0	9	3	
206	0	9	3	
207	0	9	3	
208	0	9	3	
209	0	9	3	
210	0	9	3	
211	0	9	3	
212	0	9	3	
213	0	9	3	
214	0	9	3	
215	0	9	3	
216	0	9	3	
217	0	9	3	
218	0	9	3	
219	0	9	3	
220	0	9	3	
221	0	9	3	
222	0	9	3	
223	0	9	3	
224	0	9	3	
225	0	9	3	
226	0	9	3	
227	0	9	3	
228	0	9	3	
229	0	9	3	
230	0	9	3	
231	0	9	3	
232	0	9	3	
233	0	9	3	
234	0	9	3	
235	0	9	3	
236	0	9	3	
237	0	9	3	
238	0	9	3	
239	0	9	3	
240	0	9	3	
241	0	9	3	
242	0	9	3	
243	0	9	3	
244	0	9	3	
245	0	9	3	
246	0	9	3	
247	0	9	3	
248	0	9	3	
249	0	9	3	
250	0	9	3	
251	0	9	3	
252	0	9	3	
253	0	9	3	
254	0	9	3	
255	0	9	3	
256	0	9	3	
257	0	9	3	
258	0	9	3	
259	0	9	3	
260	0	9	3	
261	0	9	3	
262	0	9	3	
263	0	9	3	
264	0	9	3	
265	0	9	3	
266	0	9	3	
267	0	9	3	
268	0	9	3	
269	0	9	3	
270	0	9	3	
271	0	9	3	
272	0	9	3	
273	0	9	3	
274	0	9	3	
275	0	9	3	
276	0	9	3	
277	0	9	3	
278	0	9	3	
279	0	9	3	
280	0	9	3	
281	0	9	3	
282	0	9	3	
283	0	9	3	
284	0	9	3	
285	0	9	3	
286	0	9	3	
287	0	9	3	
[*,*,2]: 
	1		2		3	 := 
0	9	0	9	
1	9	0	9	
2	9	0	9	
3	9	0	9	
4	9	0	9	
5	9	0	9	
6	9	0	9	
7	9	0	9	
8	9	0	9	
9	9	0	9	
10	9	0	9	
11	9	0	9	
12	9	0	9	
13	9	0	9	
14	9	0	9	
15	9	0	9	
16	9	0	9	
17	9	0	9	
18	9	0	9	
19	9	0	9	
20	9	0	9	
21	9	0	9	
22	9	0	9	
23	9	0	9	
24	9	0	9	
25	9	0	9	
26	9	0	9	
27	9	0	9	
28	9	0	9	
29	9	0	9	
30	9	0	9	
31	9	0	9	
32	9	0	9	
33	9	0	9	
34	9	0	9	
35	9	0	9	
36	9	0	9	
37	9	0	9	
38	9	0	9	
39	9	0	9	
40	9	0	9	
41	9	0	9	
42	9	0	9	
43	9	0	9	
44	9	0	9	
45	9	0	9	
46	9	0	9	
47	9	0	9	
48	9	0	9	
49	9	0	9	
50	9	0	9	
51	9	0	9	
52	9	0	9	
53	9	0	9	
54	9	0	9	
55	9	0	9	
56	9	0	9	
57	9	0	9	
58	9	0	9	
59	9	0	9	
60	9	0	9	
61	9	0	9	
62	9	0	9	
63	9	0	9	
64	9	0	9	
65	9	0	9	
66	9	0	9	
67	9	0	9	
68	9	0	9	
69	9	0	9	
70	9	0	9	
71	9	0	9	
72	9	0	9	
73	9	0	9	
74	9	0	9	
75	9	0	9	
76	9	0	9	
77	9	0	9	
78	9	0	9	
79	9	0	9	
80	9	0	9	
81	9	0	9	
82	9	0	9	
83	9	0	9	
84	9	0	9	
85	9	0	9	
86	9	0	9	
87	9	0	9	
88	9	0	9	
89	9	0	9	
90	9	0	9	
91	9	0	9	
92	9	0	9	
93	9	0	9	
94	9	0	9	
95	9	0	9	
96	9	0	9	
97	9	0	9	
98	9	0	9	
99	9	0	9	
100	9	0	9	
101	9	0	9	
102	9	0	9	
103	9	0	9	
104	9	0	9	
105	9	0	9	
106	9	0	9	
107	9	0	9	
108	9	0	9	
109	9	0	9	
110	9	0	9	
111	9	0	9	
112	9	0	9	
113	9	0	9	
114	9	0	9	
115	9	0	9	
116	9	0	9	
117	9	0	9	
118	9	0	9	
119	9	0	9	
120	9	0	9	
121	9	0	9	
122	9	0	9	
123	9	0	9	
124	9	0	9	
125	9	0	9	
126	9	0	9	
127	9	0	9	
128	9	0	9	
129	9	0	9	
130	9	0	9	
131	9	0	9	
132	9	0	9	
133	9	0	9	
134	9	0	9	
135	9	0	9	
136	9	0	9	
137	9	0	9	
138	9	0	9	
139	9	0	9	
140	9	0	9	
141	9	0	9	
142	9	0	9	
143	9	0	9	
144	9	0	9	
145	9	0	9	
146	9	0	9	
147	9	0	9	
148	9	0	9	
149	9	0	9	
150	9	0	9	
151	9	0	9	
152	9	0	9	
153	9	0	9	
154	9	0	9	
155	9	0	9	
156	9	0	9	
157	9	0	9	
158	9	0	9	
159	9	0	9	
160	9	0	9	
161	9	0	9	
162	9	0	9	
163	9	0	9	
164	9	0	9	
165	9	0	9	
166	9	0	9	
167	9	0	9	
168	9	0	9	
169	9	0	9	
170	9	0	9	
171	9	0	9	
172	9	0	9	
173	9	0	9	
174	9	0	9	
175	9	0	9	
176	9	0	9	
177	9	0	9	
178	9	0	9	
179	9	0	9	
180	9	0	9	
181	9	0	9	
182	9	0	9	
183	9	0	9	
184	9	0	9	
185	9	0	9	
186	9	0	9	
187	9	0	9	
188	9	0	9	
189	9	0	9	
190	9	0	9	
191	9	0	9	
192	9	0	9	
193	9	0	9	
194	9	0	9	
195	9	0	9	
196	9	0	9	
197	9	0	9	
198	9	0	9	
199	9	0	9	
200	9	0	9	
201	9	0	9	
202	9	0	9	
203	9	0	9	
204	9	0	9	
205	9	0	9	
206	9	0	9	
207	9	0	9	
208	9	0	9	
209	9	0	9	
210	9	0	9	
211	9	0	9	
212	9	0	9	
213	9	0	9	
214	9	0	9	
215	9	0	9	
216	9	0	9	
217	9	0	9	
218	9	0	9	
219	9	0	9	
220	9	0	9	
221	9	0	9	
222	9	0	9	
223	9	0	9	
224	9	0	9	
225	9	0	9	
226	9	0	9	
227	9	0	9	
228	9	0	9	
229	9	0	9	
230	9	0	9	
231	9	0	9	
232	9	0	9	
233	9	0	9	
234	9	0	9	
235	9	0	9	
236	9	0	9	
237	9	0	9	
238	9	0	9	
239	9	0	9	
240	9	0	9	
241	9	0	9	
242	9	0	9	
243	9	0	9	
244	9	0	9	
245	9	0	9	
246	9	0	9	
247	9	0	9	
248	9	0	9	
249	9	0	9	
250	9	0	9	
251	9	0	9	
252	9	0	9	
253	9	0	9	
254	9	0	9	
255	9	0	9	
256	9	0	9	
257	9	0	9	
258	9	0	9	
259	9	0	9	
260	9	0	9	
261	9	0	9	
262	9	0	9	
263	9	0	9	
264	9	0	9	
265	9	0	9	
266	9	0	9	
267	9	0	9	
268	9	0	9	
269	9	0	9	
270	9	0	9	
271	9	0	9	
272	9	0	9	
273	9	0	9	
274	9	0	9	
275	9	0	9	
276	9	0	9	
277	9	0	9	
278	9	0	9	
279	9	0	9	
280	9	0	9	
281	9	0	9	
282	9	0	9	
283	9	0	9	
284	9	0	9	
285	9	0	9	
286	9	0	9	
287	9	0	9	
[*,*,3]: 
	1		2		3	 := 
0	3	9	0	
1	3	9	0	
2	3	9	0	
3	3	9	0	
4	3	9	0	
5	3	9	0	
6	3	9	0	
7	3	9	0	
8	3	9	0	
9	3	9	0	
10	3	9	0	
11	3	9	0	
12	3	9	0	
13	3	9	0	
14	3	9	0	
15	3	9	0	
16	3	9	0	
17	3	9	0	
18	3	9	0	
19	3	9	0	
20	3	9	0	
21	3	9	0	
22	3	9	0	
23	3	9	0	
24	3	9	0	
25	3	9	0	
26	3	9	0	
27	3	9	0	
28	3	9	0	
29	3	9	0	
30	3	9	0	
31	3	9	0	
32	3	9	0	
33	3	9	0	
34	3	9	0	
35	3	9	0	
36	3	9	0	
37	3	9	0	
38	3	9	0	
39	3	9	0	
40	3	9	0	
41	3	9	0	
42	3	9	0	
43	3	9	0	
44	3	9	0	
45	3	9	0	
46	3	9	0	
47	3	9	0	
48	3	9	0	
49	3	9	0	
50	3	9	0	
51	3	9	0	
52	3	9	0	
53	3	9	0	
54	3	9	0	
55	3	9	0	
56	3	9	0	
57	3	9	0	
58	3	9	0	
59	3	9	0	
60	3	9	0	
61	3	9	0	
62	3	9	0	
63	3	9	0	
64	3	9	0	
65	3	9	0	
66	3	9	0	
67	3	9	0	
68	3	9	0	
69	3	9	0	
70	3	9	0	
71	3	9	0	
72	3	9	0	
73	3	9	0	
74	3	9	0	
75	3	9	0	
76	3	9	0	
77	3	9	0	
78	3	9	0	
79	3	9	0	
80	3	9	0	
81	3	9	0	
82	3	9	0	
83	3	9	0	
84	3	9	0	
85	3	9	0	
86	3	9	0	
87	3	9	0	
88	3	9	0	
89	3	9	0	
90	3	9	0	
91	3	9	0	
92	3	9	0	
93	3	9	0	
94	3	9	0	
95	3	9	0	
96	3	9	0	
97	3	9	0	
98	3	9	0	
99	3	9	0	
100	3	9	0	
101	3	9	0	
102	3	9	0	
103	3	9	0	
104	3	9	0	
105	3	9	0	
106	3	9	0	
107	3	9	0	
108	3	9	0	
109	3	9	0	
110	3	9	0	
111	3	9	0	
112	3	9	0	
113	3	9	0	
114	3	9	0	
115	3	9	0	
116	3	9	0	
117	3	9	0	
118	3	9	0	
119	3	9	0	
120	3	9	0	
121	3	9	0	
122	3	9	0	
123	3	9	0	
124	3	9	0	
125	3	9	0	
126	3	9	0	
127	3	9	0	
128	3	9	0	
129	3	9	0	
130	3	9	0	
131	3	9	0	
132	3	9	0	
133	3	9	0	
134	3	9	0	
135	3	9	0	
136	3	9	0	
137	3	9	0	
138	3	9	0	
139	3	9	0	
140	3	9	0	
141	3	9	0	
142	3	9	0	
143	3	9	0	
144	3	9	0	
145	3	9	0	
146	3	9	0	
147	3	9	0	
148	3	9	0	
149	3	9	0	
150	3	9	0	
151	3	9	0	
152	3	9	0	
153	3	9	0	
154	3	9	0	
155	3	9	0	
156	3	9	0	
157	3	9	0	
158	3	9	0	
159	3	9	0	
160	3	9	0	
161	3	9	0	
162	3	9	0	
163	3	9	0	
164	3	9	0	
165	3	9	0	
166	3	9	0	
167	3	9	0	
168	3	9	0	
169	3	9	0	
170	3	9	0	
171	3	9	0	
172	3	9	0	
173	3	9	0	
174	3	9	0	
175	3	9	0	
176	3	9	0	
177	3	9	0	
178	3	9	0	
179	3	9	0	
180	3	9	0	
181	3	9	0	
182	3	9	0	
183	3	9	0	
184	3	9	0	
185	3	9	0	
186	3	9	0	
187	3	9	0	
188	3	9	0	
189	3	9	0	
190	3	9	0	
191	3	9	0	
192	3	9	0	
193	3	9	0	
194	3	9	0	
195	3	9	0	
196	3	9	0	
197	3	9	0	
198	3	9	0	
199	3	9	0	
200	3	9	0	
201	3	9	0	
202	3	9	0	
203	3	9	0	
204	3	9	0	
205	3	9	0	
206	3	9	0	
207	3	9	0	
208	3	9	0	
209	3	9	0	
210	3	9	0	
211	3	9	0	
212	3	9	0	
213	3	9	0	
214	3	9	0	
215	3	9	0	
216	3	9	0	
217	3	9	0	
218	3	9	0	
219	3	9	0	
220	3	9	0	
221	3	9	0	
222	3	9	0	
223	3	9	0	
224	3	9	0	
225	3	9	0	
226	3	9	0	
227	3	9	0	
228	3	9	0	
229	3	9	0	
230	3	9	0	
231	3	9	0	
232	3	9	0	
233	3	9	0	
234	3	9	0	
235	3	9	0	
236	3	9	0	
237	3	9	0	
238	3	9	0	
239	3	9	0	
240	3	9	0	
241	3	9	0	
242	3	9	0	
243	3	9	0	
244	3	9	0	
245	3	9	0	
246	3	9	0	
247	3	9	0	
248	3	9	0	
249	3	9	0	
250	3	9	0	
251	3	9	0	
252	3	9	0	
253	3	9	0	
254	3	9	0	
255	3	9	0	
256	3	9	0	
257	3	9	0	
258	3	9	0	
259	3	9	0	
260	3	9	0	
261	3	9	0	
262	3	9	0	
263	3	9	0	
264	3	9	0	
265	3	9	0	
266	3	9	0	
267	3	9	0	
268	3	9	0	
269	3	9	0	
270	3	9	0	
271	3	9	0	
272	3	9	0	
273	3	9	0	
274	3	9	0	
275	3	9	0	
276	3	9	0	
277	3	9	0	
278	3	9	0	
279	3	9	0	
280	3	9	0	
281	3	9	0	
282	3	9	0	
283	3	9	0	
284	3	9	0	
285	3	9	0	
286	3	9	0	
287	3	9	0	
;
